\ SCIP STATISTICS
\   Problem name     : SetCover-100-150
\   Variables        : 150 (150 binary, 0 integer, 0 implicit integer, 0 continuous)
\   Constraints      : 100
Minimize
 Obj: +23 x0 +60 x1 +45 x2 +95 x3 +44 x4 +30 x5 +42 x6 +91 x7 +54 x8 +96 x9 +92 x10 +16 x11 +91 x12 +53 x13
      +21 x14 +84 x15 +88 x16 +93 x17 +6 x18 +36 x19 +99 x20 +9 x21 +6 x22 +79 x23 +58 x24 +83 x25 +93 x26
      +12 x27 +98 x28 +69 x29 +75 x30 +55 x31 +30 x32 +79 x33 +44 x34 +73 x35 +56 x36 +38 x37 +50 x38
      +20 x39 +35 x40 +50 x41 +8 x42 +72 x43 +51 x44 +71 x45 +15 x46 +99 x47 +98 x48 +81 x49 +22 x50 +88 x51
      +17 x52 +8 x53 +30 x54 +56 x55 +26 x56 +85 x57 +95 x58 +56 x59 +59 x60 +69 x61 +43 x62 +98 x63 +56 x64
      +33 x65 +85 x66 +6 x67 +59 x68 +80 x69 +47 x70 +29 x71 +29 x72 +14 x73 +48 x74 +2 x75 +35 x76 +100 x77
      +31 x78 +31 x79 +51 x80 +74 x81 +96 x82 +33 x83 +93 x84 +6 x85 +23 x86 +99 x87 +32 x88 +82 x89 +80 x90
      +14 x91 +10 x92 +15 x93 +4 x94 +5 x95 +3 x96 +74 x97 +98 x98 +35 x99 +69 x100 +4 x101 +75 x102 +75 x103
      +45 x104 +63 x105 +15 x106 +59 x107 +20 x108 +92 x109 +2 x110 +16 x111 +91 x112 +94 x113 +54 x114
      +94 x115 +21 x116 +76 x117 +65 x118 +1 x119 +90 x120 +60 x121 +63 x122 +77 x123 +31 x124 +39 x125
      +94 x126 +51 x127 +75 x128 +58 x129 +95 x130 +26 x131 +96 x132 +72 x133 +74 x134 +49 x135 +18 x136
      +11 x137 +86 x138 +22 x139 +44 x140 +20 x141 +30 x142 +21 x143 +91 x144 +28 x145 +25 x146 +43 x147
      +2 x148 +81 x149
Subject to
 c0: +1 x3 +1 x7 +1 x10 +1 x12 +1 x21 +1 x29 +1 x30 +1 x43 +1 x57 +1 x64 +1 x70 +1 x80 +1 x85 +1 x87 +1 x88
  +1 x90 +1 x92 +1 x97 +1 x106 +1 x119 +1 x120 +1 x122 +1 x126 +1 x127 +1 x130 +1 x141 +1 x142 +1 x148
  >= +1
 c1: +1 x2 +1 x13 +1 x14 +1 x33 +1 x42 +1 x45 +1 x46 +1 x49 +1 x57 +1 x58 +1 x59 +1 x60 +1 x61 +1 x62
  +1 x65 +1 x66 +1 x78 +1 x87 +1 x96 +1 x99 +1 x101 +1 x104 +1 x110 +1 x111 +1 x113 +1 x118 +1 x127 +1 x134
  +1 x147 >= +1
 c2: +1 x1 +1 x5 +1 x11 +1 x24 +1 x25 +1 x32 +1 x38 +1 x39 +1 x65 +1 x67 +1 x70 +1 x71 +1 x73 +1 x90 +1 x94
  +1 x96 +1 x98 +1 x100 +1 x105 +1 x114 +1 x116 +1 x120 +1 x123 +1 x129 +1 x133 +1 x144 >= +1
 c3: +1 x3 +1 x5 +1 x8 +1 x10 +1 x12 +1 x13 +1 x20 +1 x23 +1 x26 +1 x31 +1 x36 +1 x38 +1 x41 +1 x43 +1 x46
  +1 x50 +1 x70 +1 x75 +1 x81 +1 x83 +1 x85 +1 x86 +1 x90 +1 x93 +1 x99 +1 x101 +1 x111 +1 x112 +1 x115
  +1 x120 +1 x129 +1 x136 +1 x141 +1 x142 >= +1
 c4: +1 x0 +1 x6 +1 x27 +1 x38 +1 x41 +1 x54 +1 x62 +1 x64 +1 x66 +1 x77 +1 x79 +1 x84 +1 x88 +1 x90 +1 x98
  +1 x100 +1 x102 +1 x103 +1 x104 +1 x108 +1 x111 +1 x114 +1 x116 +1 x120 +1 x125 +1 x134 +1 x135 +1 x137
  +1 x141 +1 x147 >= +1
 c5: +1 x1 +1 x6 +1 x7 +1 x23 +1 x25 +1 x33 +1 x36 +1 x39 +1 x44 +1 x76 +1 x81 +1 x84 +1 x88 +1 x96 +1 x98
  +1 x102 +1 x105 +1 x113 +1 x114 +1 x119 +1 x137 +1 x139 +1 x140 >= +1
 c6: +1 x4 +1 x12 +1 x14 +1 x17 +1 x22 +1 x23 +1 x27 +1 x29 +1 x33 +1 x35 +1 x38 +1 x40 +1 x43 +1 x51
  +1 x63 +1 x69 +1 x73 +1 x80 +1 x81 +1 x82 +1 x83 +1 x88 +1 x90 +1 x93 +1 x104 +1 x108 +1 x109 +1 x120
  +1 x121 +1 x128 +1 x140 +1 x141 +1 x145 >= +1
 c7: +1 x1 +1 x5 +1 x9 +1 x10 +1 x21 +1 x26 +1 x37 +1 x38 +1 x45 +1 x46 +1 x50 +1 x61 +1 x63 +1 x69 +1 x81
  +1 x83 +1 x84 +1 x87 +1 x99 +1 x105 +1 x107 +1 x117 +1 x122 +1 x129 +1 x134 +1 x137 >= +1
 c8: +1 x1 +1 x8 +1 x9 +1 x10 +1 x15 +1 x16 +1 x17 +1 x18 +1 x30 +1 x38 +1 x41 +1 x47 +1 x57 +1 x73 +1 x75
  +1 x89 +1 x94 +1 x98 +1 x102 +1 x109 +1 x112 +1 x116 +1 x118 +1 x123 +1 x131 +1 x138 +1 x142 +1 x143
  +1 x148 >= +1
 c9: +1 x2 +1 x5 +1 x6 +1 x9 +1 x12 +1 x15 +1 x19 +1 x21 +1 x24 +1 x31 +1 x35 +1 x38 +1 x49 +1 x58 +1 x59
  +1 x64 +1 x68 +1 x70 +1 x77 +1 x82 +1 x85 +1 x88 +1 x89 +1 x91 +1 x96 +1 x114 +1 x116 +1 x123 +1 x136
  +1 x139 +1 x141 +1 x142 +1 x144 +1 x145 +1 x149 >= +1
 c10: +1 x1 +1 x10 +1 x13 +1 x15 +1 x23 +1 x24 +1 x25 +1 x34 +1 x36 +1 x37 +1 x42 +1 x45 +1 x55 +1 x56
  +1 x59 +1 x66 +1 x76 +1 x77 +1 x78 +1 x83 +1 x84 +1 x86 +1 x89 +1 x90 +1 x91 +1 x94 +1 x96 +1 x102 +1 x105
  +1 x111 +1 x112 +1 x116 +1 x119 +1 x125 +1 x127 +1 x129 +1 x134 +1 x135 >= +1
 c11: +1 x0 +1 x10 +1 x28 +1 x34 +1 x35 +1 x36 +1 x40 +1 x41 +1 x42 +1 x50 +1 x61 +1 x63 +1 x65 +1 x67
  +1 x68 +1 x88 +1 x91 +1 x105 +1 x116 +1 x122 +1 x127 +1 x136 +1 x141 +1 x144 +1 x147 +1 x149 >= +1
 c12: +1 x0 +1 x13 +1 x16 +1 x18 +1 x26 +1 x28 +1 x29 +1 x33 +1 x44 +1 x49 +1 x52 +1 x55 +1 x57 +1 x60
  +1 x63 +1 x64 +1 x73 +1 x82 +1 x83 +1 x88 +1 x89 +1 x96 +1 x101 +1 x115 +1 x129 +1 x138 +1 x139 +1 x141
  +1 x142 +1 x146 >= +1
 c13: +1 x2 +1 x5 +1 x14 +1 x15 +1 x21 +1 x23 +1 x27 +1 x29 +1 x32 +1 x34 +1 x36 +1 x37 +1 x47 +1 x51
  +1 x57 +1 x59 +1 x69 +1 x71 +1 x72 +1 x73 +1 x76 +1 x81 +1 x83 +1 x86 +1 x93 +1 x94 +1 x103 +1 x115
  +1 x116 +1 x118 +1 x119 +1 x122 +1 x127 +1 x128 +1 x129 +1 x132 +1 x134 +1 x140 +1 x146 +1 x148 >= +1
 c14: +1 x4 +1 x19 +1 x20 +1 x21 +1 x23 +1 x24 +1 x33 +1 x42 +1 x45 +1 x59 +1 x64 +1 x65 +1 x70 +1 x87
  +1 x95 +1 x97 +1 x100 +1 x103 +1 x105 +1 x106 +1 x109 +1 x112 +1 x113 +1 x118 +1 x119 +1 x120 +1 x132
  +1 x135 +1 x136 +1 x142 +1 x143 +1 x147 +1 x149 >= +1
 c15: +1 x4 +1 x8 +1 x9 +1 x17 +1 x26 +1 x33 +1 x35 +1 x36 +1 x43 +1 x49 +1 x54 +1 x57 +1 x61 +1 x62 +1 x76
  +1 x78 +1 x90 +1 x96 +1 x99 +1 x111 +1 x119 +1 x126 >= +1
 c16: +1 x3 +1 x6 +1 x16 +1 x22 +1 x25 +1 x39 +1 x45 +1 x56 +1 x57 +1 x60 +1 x65 +1 x69 +1 x71 +1 x83
  +1 x91 +1 x92 +1 x95 +1 x100 +1 x103 +1 x104 +1 x107 +1 x112 +1 x114 +1 x115 +1 x117 +1 x124 +1 x129
  +1 x133 +1 x135 +1 x144 >= +1
 c17: +1 x2 +1 x8 +1 x9 +1 x10 +1 x16 +1 x19 +1 x34 +1 x36 +1 x43 +1 x46 +1 x50 +1 x53 +1 x54 +1 x57 +1 x58
  +1 x61 +1 x62 +1 x63 +1 x66 +1 x67 +1 x74 +1 x78 +1 x84 +1 x94 +1 x98 +1 x104 +1 x105 +1 x111 +1 x116
  +1 x119 +1 x127 +1 x128 +1 x129 +1 x137 +1 x139 +1 x146 >= +1
 c18: +1 x2 +1 x11 +1 x13 +1 x20 +1 x24 +1 x29 +1 x37 +1 x46 +1 x49 +1 x51 +1 x54 +1 x59 +1 x74 +1 x79
  +1 x81 +1 x95 +1 x96 +1 x99 +1 x111 +1 x117 +1 x120 +1 x132 +1 x137 +1 x141 +1 x143 +1 x144 +1 x146
  >= +1
 c19: +1 x4 +1 x5 +1 x6 +1 x12 +1 x16 +1 x24 +1 x28 +1 x33 +1 x34 +1 x46 +1 x55 +1 x57 +1 x91 +1 x94 +1 x95
  +1 x96 +1 x101 +1 x106 +1 x112 +1 x117 +1 x121 +1 x126 +1 x132 >= +1
 c20: +1 x3 +1 x14 +1 x16 +1 x27 +1 x29 +1 x34 +1 x39 +1 x40 +1 x48 +1 x49 +1 x54 +1 x62 +1 x65 +1 x69
  +1 x79 +1 x95 +1 x96 +1 x101 +1 x104 +1 x106 +1 x109 +1 x110 +1 x113 +1 x115 +1 x126 +1 x141 +1 x144
  +1 x146 >= +1
 c21: +1 x2 +1 x12 +1 x23 +1 x41 +1 x43 +1 x47 +1 x48 +1 x58 +1 x59 +1 x60 +1 x61 +1 x82 +1 x88 +1 x104
  +1 x111 +1 x112 +1 x113 +1 x118 +1 x127 +1 x130 +1 x134 +1 x137 +1 x139 >= +1
 c22: +1 x4 +1 x14 +1 x25 +1 x27 +1 x31 +1 x35 +1 x47 +1 x52 +1 x59 +1 x64 +1 x83 +1 x85 +1 x87 +1 x97
  +1 x98 +1 x99 +1 x101 +1 x114 +1 x118 +1 x121 +1 x132 >= +1
 c23: +1 x1 +1 x10 +1 x12 +1 x15 +1 x23 +1 x27 +1 x28 +1 x34 +1 x41 +1 x42 +1 x48 +1 x49 +1 x59 +1 x61
  +1 x63 +1 x65 +1 x72 +1 x73 +1 x74 +1 x82 +1 x96 +1 x100 +1 x101 +1 x107 +1 x125 +1 x133 +1 x142 >= +1
 c24: +1 x2 +1 x7 +1 x9 +1 x11 +1 x12 +1 x16 +1 x19 +1 x20 +1 x22 +1 x24 +1 x30 +1 x36 +1 x40 +1 x44 +1 x49
  +1 x52 +1 x58 +1 x64 +1 x69 +1 x73 +1 x74 +1 x82 +1 x88 +1 x91 +1 x103 +1 x106 +1 x114 +1 x118 +1 x132
  +1 x135 +1 x145 >= +1
 c25: +1 x2 +1 x13 +1 x21 +1 x23 +1 x26 +1 x38 +1 x39 +1 x46 +1 x48 +1 x58 +1 x62 +1 x63 +1 x68 +1 x76
  +1 x77 +1 x79 +1 x83 +1 x85 +1 x95 +1 x97 +1 x98 +1 x99 +1 x100 +1 x101 +1 x103 +1 x104 +1 x105 +1 x112
  +1 x121 +1 x124 +1 x130 +1 x133 +1 x139 +1 x140 +1 x141 +1 x143 +1 x148 >= +1
 c26: +1 x1 +1 x5 +1 x9 +1 x10 +1 x12 +1 x25 +1 x30 +1 x37 +1 x39 +1 x54 +1 x69 +1 x74 +1 x75 +1 x76 +1 x80
  +1 x81 +1 x84 +1 x86 +1 x89 +1 x103 +1 x104 +1 x108 +1 x109 +1 x113 +1 x119 +1 x123 +1 x124 +1 x133
  +1 x135 +1 x142 +1 x143 >= +1
 c27: +1 x2 +1 x5 +1 x13 +1 x26 +1 x33 +1 x34 +1 x36 +1 x37 +1 x41 +1 x45 +1 x56 +1 x61 +1 x65 +1 x70
  +1 x77 +1 x87 +1 x94 +1 x96 +1 x99 +1 x114 +1 x126 +1 x127 +1 x130 +1 x133 +1 x140 +1 x143 >= +1
 c28: +1 x2 +1 x8 +1 x13 +1 x17 +1 x18 +1 x25 +1 x27 +1 x30 +1 x32 +1 x35 +1 x39 +1 x41 +1 x43 +1 x50
  +1 x58 +1 x62 +1 x65 +1 x73 +1 x75 +1 x77 +1 x80 +1 x96 +1 x114 +1 x121 +1 x122 +1 x126 +1 x132 +1 x137
  +1 x140 >= +1
 c29: +1 x2 +1 x7 +1 x8 +1 x11 +1 x16 +1 x17 +1 x36 +1 x39 +1 x41 +1 x44 +1 x48 +1 x49 +1 x51 +1 x57 +1 x59
  +1 x60 +1 x63 +1 x67 +1 x73 +1 x81 +1 x87 +1 x92 +1 x101 +1 x107 +1 x116 +1 x118 +1 x119 +1 x126 +1 x129
  +1 x134 +1 x136 +1 x139 >= +1
 c30: +1 x2 +1 x5 +1 x13 +1 x18 +1 x24 +1 x28 +1 x31 +1 x32 +1 x35 +1 x37 +1 x38 +1 x47 +1 x49 +1 x50
  +1 x62 +1 x65 +1 x82 +1 x83 +1 x84 +1 x85 +1 x93 +1 x98 +1 x113 +1 x132 +1 x149 >= +1
 c31: +1 x4 +1 x8 +1 x10 +1 x13 +1 x29 +1 x30 +1 x36 +1 x43 +1 x48 +1 x67 +1 x68 +1 x76 +1 x78 +1 x79
  +1 x80 +1 x81 +1 x85 +1 x88 +1 x91 +1 x102 +1 x106 +1 x112 +1 x130 +1 x136 +1 x138 +1 x139 +1 x141 +1 x143
  +1 x146 >= +1
 c32: +1 x2 +1 x17 +1 x20 +1 x26 +1 x41 +1 x44 +1 x50 +1 x55 +1 x58 +1 x59 +1 x63 +1 x65 +1 x74 +1 x84
  +1 x86 +1 x90 +1 x98 +1 x100 +1 x101 +1 x111 +1 x122 +1 x132 +1 x146 +1 x149 >= +1
 c33: +1 x3 +1 x9 +1 x17 +1 x34 +1 x41 +1 x43 +1 x53 +1 x69 +1 x73 +1 x86 +1 x104 +1 x106 +1 x108 +1 x109
  +1 x110 +1 x111 +1 x120 +1 x129 +1 x133 +1 x134 +1 x138 +1 x140 +1 x143 >= +1
 c34: +1 x4 +1 x16 +1 x19 +1 x20 +1 x24 +1 x31 +1 x36 +1 x39 +1 x41 +1 x53 +1 x55 +1 x58 +1 x64 +1 x78
  +1 x85 +1 x87 +1 x89 +1 x101 +1 x110 +1 x111 +1 x113 +1 x118 +1 x119 +1 x123 +1 x128 +1 x131 +1 x132
  +1 x133 +1 x135 +1 x138 +1 x141 +1 x142 +1 x149 >= +1
 c35: +1 x1 +1 x6 +1 x10 +1 x15 +1 x19 +1 x20 +1 x22 +1 x24 +1 x28 +1 x31 +1 x32 +1 x33 +1 x34 +1 x38
  +1 x42 +1 x47 +1 x56 +1 x60 +1 x65 +1 x68 +1 x73 +1 x75 +1 x76 +1 x81 +1 x83 +1 x87 +1 x99 +1 x106 +1 x107
  +1 x111 +1 x117 +1 x122 +1 x128 +1 x133 +1 x140 +1 x141 +1 x146 >= +1
 c36: +1 x3 +1 x8 +1 x14 +1 x27 +1 x28 +1 x32 +1 x46 +1 x50 +1 x52 +1 x73 +1 x83 +1 x86 +1 x88 +1 x101
  +1 x108 +1 x112 +1 x114 +1 x134 +1 x136 +1 x137 +1 x139 +1 x142 +1 x145 >= +1
 c37: +1 x3 +1 x6 +1 x9 +1 x17 +1 x19 +1 x25 +1 x28 +1 x30 +1 x33 +1 x40 +1 x41 +1 x51 +1 x53 +1 x69 +1 x78
  +1 x80 +1 x81 +1 x85 +1 x86 +1 x89 +1 x94 +1 x113 +1 x114 +1 x115 +1 x116 +1 x117 +1 x118 +1 x120 +1 x122
  +1 x128 +1 x144 >= +1
 c38: +1 x0 +1 x11 +1 x12 +1 x13 +1 x15 +1 x22 +1 x24 +1 x26 +1 x27 +1 x35 +1 x37 +1 x48 +1 x49 +1 x52
  +1 x61 +1 x62 +1 x68 +1 x72 +1 x73 +1 x79 +1 x89 +1 x91 +1 x98 +1 x101 +1 x102 +1 x104 +1 x106 +1 x107
  +1 x108 +1 x111 +1 x126 +1 x135 +1 x136 +1 x143 >= +1
 c39: +1 x2 +1 x5 +1 x14 +1 x20 +1 x25 +1 x29 +1 x30 +1 x40 +1 x41 +1 x50 +1 x56 +1 x60 +1 x61 +1 x66
  +1 x71 +1 x72 +1 x73 +1 x84 +1 x87 +1 x106 +1 x110 +1 x122 +1 x131 +1 x132 +1 x134 +1 x140 +1 x144 +1 x146
  +1 x149 >= +1
 c40: +1 x2 +1 x6 +1 x10 +1 x18 +1 x41 +1 x45 +1 x51 +1 x57 +1 x63 +1 x66 +1 x68 +1 x75 +1 x79 +1 x82
  +1 x89 +1 x90 +1 x91 +1 x95 +1 x115 +1 x119 +1 x123 +1 x124 +1 x126 +1 x127 +1 x129 +1 x134 +1 x137
  +1 x139 +1 x141 +1 x146 +1 x147 >= +1
 c41: +1 x1 +1 x6 +1 x20 +1 x22 +1 x23 +1 x34 +1 x36 +1 x53 +1 x67 +1 x73 +1 x80 +1 x83 +1 x91 +1 x93
  +1 x94 +1 x97 +1 x98 +1 x101 +1 x105 +1 x107 +1 x110 +1 x111 +1 x114 +1 x115 +1 x116 +1 x123 +1 x124
  +1 x127 +1 x128 +1 x139 +1 x144 +1 x145 >= +1
 c42: +1 x0 +1 x5 +1 x11 +1 x13 +1 x19 +1 x21 +1 x23 +1 x26 +1 x54 +1 x69 +1 x70 +1 x82 +1 x83 +1 x93
  +1 x99 +1 x100 +1 x101 +1 x102 +1 x107 +1 x108 +1 x109 +1 x111 +1 x117 +1 x119 +1 x128 +1 x129 +1 x136
  +1 x147 +1 x148 >= +1
 c43: +1 x2 +1 x5 +1 x7 +1 x13 +1 x14 +1 x17 +1 x19 +1 x27 +1 x35 +1 x36 +1 x40 +1 x54 +1 x60 +1 x63 +1 x65
  +1 x68 +1 x75 +1 x79 +1 x80 +1 x87 +1 x88 +1 x94 +1 x96 +1 x102 +1 x105 +1 x110 +1 x111 +1 x117 +1 x125
  +1 x128 +1 x131 +1 x133 +1 x137 +1 x139 +1 x143 >= +1
 c44: +1 x4 +1 x10 +1 x17 +1 x37 +1 x38 +1 x51 +1 x57 +1 x59 +1 x63 +1 x69 +1 x76 +1 x94 +1 x105 +1 x107
  +1 x109 +1 x110 +1 x113 +1 x114 +1 x116 +1 x119 +1 x134 +1 x137 +1 x149 >= +1
 c45: +1 x1 +1 x15 +1 x21 +1 x27 +1 x28 +1 x35 +1 x39 +1 x43 +1 x47 +1 x52 +1 x54 +1 x62 +1 x65 +1 x78
  +1 x81 +1 x88 +1 x89 +1 x91 +1 x95 +1 x97 +1 x101 +1 x106 +1 x109 +1 x115 +1 x116 +1 x122 +1 x124 +1 x128
  +1 x131 +1 x140 +1 x141 +1 x142 +1 x145 >= +1
 c46: +1 x3 +1 x7 +1 x11 +1 x15 +1 x18 +1 x24 +1 x31 +1 x41 +1 x43 +1 x46 +1 x54 +1 x59 +1 x64 +1 x69
  +1 x70 +1 x77 +1 x78 +1 x87 +1 x95 +1 x101 +1 x108 +1 x115 +1 x117 +1 x129 +1 x130 +1 x132 +1 x143 +1 x144
  >= +1
 c47: +1 x4 +1 x11 +1 x33 +1 x44 +1 x45 +1 x46 +1 x47 +1 x55 +1 x60 +1 x63 +1 x66 +1 x70 +1 x90 +1 x92
  +1 x95 +1 x97 +1 x102 +1 x104 +1 x106 +1 x107 +1 x112 +1 x116 +1 x117 +1 x121 +1 x124 +1 x132 +1 x136
  +1 x145 +1 x148 >= +1
 c48: +1 x3 +1 x9 +1 x24 +1 x38 +1 x43 +1 x46 +1 x50 +1 x66 +1 x68 +1 x71 +1 x77 +1 x79 +1 x82 +1 x88
  +1 x90 +1 x94 +1 x105 +1 x108 +1 x114 +1 x134 +1 x137 +1 x145 +1 x146 >= +1
 c49: +1 x4 +1 x11 +1 x17 +1 x19 +1 x20 +1 x21 +1 x24 +1 x28 +1 x33 +1 x34 +1 x37 +1 x42 +1 x44 +1 x48
  +1 x58 +1 x61 +1 x73 +1 x75 +1 x79 +1 x80 +1 x85 +1 x88 +1 x91 +1 x97 +1 x112 +1 x115 +1 x117 +1 x124
  +1 x127 +1 x134 +1 x135 +1 x136 +1 x140 +1 x142 +1 x146 >= +1
 c50: +1 x3 +1 x11 +1 x13 +1 x21 +1 x26 +1 x29 +1 x30 +1 x32 +1 x33 +1 x34 +1 x41 +1 x60 +1 x62 +1 x64
  +1 x69 +1 x81 +1 x85 +1 x86 +1 x88 +1 x90 +1 x91 +1 x92 +1 x94 +1 x97 +1 x98 +1 x108 +1 x112 +1 x113
  +1 x115 +1 x117 +1 x124 +1 x126 +1 x142 +1 x144 +1 x147 >= +1
 c51: +1 x0 +1 x12 +1 x15 +1 x26 +1 x28 +1 x36 +1 x39 +1 x41 +1 x43 +1 x54 +1 x65 +1 x71 +1 x74 +1 x75
  +1 x83 +1 x84 +1 x86 +1 x99 +1 x100 +1 x124 +1 x127 +1 x136 +1 x138 +1 x144 +1 x145 >= +1
 c52: +1 x2 +1 x11 +1 x13 +1 x17 +1 x20 +1 x21 +1 x28 +1 x34 +1 x37 +1 x38 +1 x41 +1 x43 +1 x45 +1 x57
  +1 x58 +1 x63 +1 x68 +1 x71 +1 x73 +1 x82 +1 x89 +1 x92 +1 x97 +1 x100 +1 x102 +1 x109 +1 x112 +1 x118
  +1 x122 +1 x125 +1 x126 +1 x128 +1 x129 +1 x145 +1 x147 >= +1
 c53: +1 x3 +1 x14 +1 x18 +1 x21 +1 x22 +1 x23 +1 x32 +1 x35 +1 x41 +1 x45 +1 x46 +1 x47 +1 x50 +1 x54
  +1 x56 +1 x63 +1 x64 +1 x74 +1 x88 +1 x92 +1 x93 +1 x97 +1 x98 +1 x103 +1 x104 +1 x112 +1 x127 +1 x141
  +1 x145 >= +1
 c54: +1 x0 +1 x5 +1 x12 +1 x14 +1 x20 +1 x22 +1 x23 +1 x25 +1 x26 +1 x37 +1 x40 +1 x44 +1 x47 +1 x49
  +1 x52 +1 x53 +1 x55 +1 x56 +1 x62 +1 x63 +1 x76 +1 x78 +1 x79 +1 x93 +1 x98 +1 x104 +1 x107 +1 x108
  +1 x110 +1 x112 +1 x115 +1 x138 +1 x146 +1 x149 >= +1
 c55: +1 x3 +1 x4 +1 x5 +1 x19 +1 x23 +1 x26 +1 x32 +1 x33 +1 x49 +1 x57 +1 x61 +1 x79 +1 x90 +1 x96 +1 x100
  +1 x114 +1 x118 +1 x129 +1 x131 +1 x135 >= +1
 c56: +1 x1 +1 x9 +1 x11 +1 x15 +1 x36 +1 x37 +1 x41 +1 x47 +1 x71 +1 x80 +1 x82 +1 x84 +1 x104 +1 x106
  +1 x111 +1 x112 +1 x123 +1 x124 +1 x127 +1 x130 >= +1
 c57: +1 x1 +1 x6 +1 x7 +1 x13 +1 x14 +1 x18 +1 x22 +1 x25 +1 x36 +1 x43 +1 x47 +1 x56 +1 x57 +1 x75 +1 x79
  +1 x83 +1 x89 +1 x92 +1 x93 +1 x105 +1 x112 +1 x116 +1 x117 +1 x120 +1 x124 +1 x131 +1 x142 >= +1
 c58: +1 x4 +1 x5 +1 x9 +1 x10 +1 x12 +1 x16 +1 x17 +1 x20 +1 x25 +1 x30 +1 x40 +1 x44 +1 x45 +1 x47 +1 x57
  +1 x64 +1 x73 +1 x74 +1 x79 +1 x86 +1 x87 +1 x90 +1 x94 +1 x99 +1 x100 +1 x107 +1 x110 +1 x113 +1 x114
  +1 x122 +1 x123 +1 x130 +1 x139 +1 x144 +1 x147 +1 x149 >= +1
 c59: +1 x2 +1 x13 +1 x14 +1 x17 +1 x23 +1 x27 +1 x29 +1 x41 +1 x47 +1 x53 +1 x54 +1 x61 +1 x65 +1 x67
  +1 x74 +1 x84 +1 x85 +1 x86 +1 x96 +1 x97 +1 x98 +1 x103 +1 x110 +1 x112 +1 x122 +1 x127 +1 x131 +1 x139
  +1 x140 +1 x148 >= +1
 c60: +1 x0 +1 x16 +1 x34 +1 x35 +1 x42 +1 x46 +1 x50 +1 x56 +1 x57 +1 x58 +1 x75 +1 x83 +1 x86 +1 x88
  +1 x92 +1 x97 +1 x111 +1 x114 +1 x115 +1 x120 +1 x122 +1 x123 +1 x125 +1 x136 +1 x138 +1 x148 >= +1
 c61: +1 x4 +1 x6 +1 x8 +1 x10 +1 x15 +1 x32 +1 x34 +1 x43 +1 x44 +1 x45 +1 x52 +1 x70 +1 x71 +1 x73 +1 x80
  +1 x84 +1 x86 +1 x88 +1 x90 +1 x94 +1 x105 +1 x110 +1 x114 +1 x118 +1 x119 +1 x122 +1 x123 +1 x128 +1 x134
  +1 x135 +1 x144 >= +1
 c62: +1 x2 +1 x12 +1 x17 +1 x19 +1 x27 +1 x42 +1 x45 +1 x49 +1 x57 +1 x60 +1 x65 +1 x67 +1 x81 +1 x83
  +1 x91 +1 x95 +1 x97 +1 x99 +1 x108 +1 x110 +1 x114 +1 x121 +1 x126 +1 x130 +1 x133 +1 x144 +1 x145
  +1 x147 >= +1
 c63: +1 x0 +1 x10 +1 x11 +1 x19 +1 x33 +1 x34 +1 x39 +1 x43 +1 x47 +1 x48 +1 x51 +1 x58 +1 x63 +1 x69
  +1 x72 +1 x73 +1 x75 +1 x92 +1 x102 +1 x104 +1 x110 +1 x123 +1 x127 +1 x132 +1 x133 +1 x144 >= +1
 c64: +1 x3 +1 x10 +1 x11 +1 x12 +1 x13 +1 x19 +1 x23 +1 x33 +1 x37 +1 x38 +1 x40 +1 x48 +1 x52 +1 x54
  +1 x57 +1 x59 +1 x63 +1 x66 +1 x73 +1 x83 +1 x86 +1 x91 +1 x94 +1 x102 +1 x103 +1 x113 +1 x123 +1 x139
  +1 x141 +1 x143 +1 x148 >= +1
 c65: +1 x2 +1 x12 +1 x17 +1 x20 +1 x25 +1 x27 +1 x31 +1 x32 +1 x38 +1 x43 +1 x48 +1 x49 +1 x61 +1 x66
  +1 x77 +1 x78 +1 x79 +1 x82 +1 x83 +1 x93 +1 x109 +1 x117 +1 x120 +1 x121 +1 x126 +1 x130 +1 x136 +1 x137
  +1 x138 +1 x140 +1 x145 +1 x147 >= +1
 c66: +1 x3 +1 x9 +1 x16 +1 x28 +1 x31 +1 x32 +1 x34 +1 x44 +1 x48 +1 x50 +1 x51 +1 x58 +1 x79 +1 x81
  +1 x91 +1 x100 +1 x106 +1 x112 +1 x121 +1 x125 +1 x126 +1 x127 +1 x139 +1 x140 +1 x143 +1 x144 +1 x145
  +1 x146 >= +1
 c67: +1 x0 +1 x5 +1 x13 +1 x14 +1 x24 +1 x29 +1 x30 +1 x31 +1 x54 +1 x55 +1 x60 +1 x61 +1 x62 +1 x63
  +1 x71 +1 x72 +1 x76 +1 x81 +1 x83 +1 x86 +1 x95 +1 x98 +1 x100 +1 x101 +1 x112 +1 x116 +1 x123 +1 x124
  +1 x129 +1 x139 +1 x145 +1 x148 >= +1
 c68: +1 x2 +1 x4 +1 x9 +1 x10 +1 x11 +1 x14 +1 x17 +1 x24 +1 x28 +1 x30 +1 x36 +1 x40 +1 x42 +1 x46 +1 x47
  +1 x50 +1 x51 +1 x55 +1 x58 +1 x60 +1 x61 +1 x63 +1 x68 +1 x71 +1 x78 +1 x81 +1 x84 +1 x93 +1 x95 +1 x101
  +1 x107 +1 x110 +1 x118 +1 x123 +1 x131 +1 x135 +1 x139 +1 x142 +1 x143 +1 x147 >= +1
 c69: +1 x2 +1 x25 +1 x29 +1 x30 +1 x35 +1 x36 +1 x39 +1 x44 +1 x50 +1 x51 +1 x55 +1 x56 +1 x60 +1 x63
  +1 x64 +1 x65 +1 x66 +1 x69 +1 x78 +1 x87 +1 x97 +1 x109 +1 x122 +1 x125 +1 x130 +1 x135 +1 x141 +1 x143
  +1 x145 +1 x147 >= +1
 c70: +1 x0 +1 x6 +1 x8 +1 x23 +1 x26 +1 x32 +1 x34 +1 x36 +1 x41 +1 x44 +1 x47 +1 x59 +1 x71 +1 x73 +1 x82
  +1 x93 +1 x101 +1 x109 +1 x110 +1 x111 +1 x112 +1 x114 +1 x116 +1 x123 +1 x128 +1 x130 +1 x131 +1 x137
  +1 x140 +1 x142 >= +1
 c71: +1 x4 +1 x9 +1 x16 +1 x17 +1 x19 +1 x22 +1 x27 +1 x30 +1 x43 +1 x44 +1 x48 +1 x51 +1 x55 +1 x60
  +1 x61 +1 x66 +1 x68 +1 x69 +1 x71 +1 x73 +1 x74 +1 x76 +1 x83 +1 x92 +1 x105 +1 x106 +1 x110 +1 x111
  +1 x117 +1 x120 +1 x128 +1 x131 +1 x135 +1 x139 +1 x148 >= +1
 c72: +1 x2 +1 x14 +1 x17 +1 x20 +1 x23 +1 x42 +1 x48 +1 x54 +1 x57 +1 x62 +1 x63 +1 x80 +1 x87 +1 x95
  +1 x103 +1 x105 +1 x106 +1 x112 +1 x114 +1 x117 +1 x120 +1 x127 +1 x132 +1 x134 +1 x138 +1 x139 +1 x140
  >= +1
 c73: +1 x3 +1 x9 +1 x11 +1 x12 +1 x13 +1 x15 +1 x23 +1 x26 +1 x27 +1 x32 +1 x33 +1 x40 +1 x46 +1 x51
  +1 x52 +1 x53 +1 x54 +1 x59 +1 x61 +1 x65 +1 x66 +1 x70 +1 x79 +1 x83 +1 x91 +1 x99 +1 x111 +1 x115
  +1 x116 +1 x117 +1 x120 +1 x126 +1 x130 +1 x135 +1 x136 +1 x143 +1 x146 >= +1
 c74: +1 x2 +1 x12 +1 x15 +1 x16 +1 x18 +1 x25 +1 x35 +1 x36 +1 x37 +1 x42 +1 x45 +1 x46 +1 x49 +1 x52
  +1 x53 +1 x56 +1 x64 +1 x69 +1 x70 +1 x73 +1 x75 +1 x87 +1 x90 +1 x98 +1 x103 +1 x111 +1 x114 +1 x115
  +1 x124 +1 x134 +1 x135 +1 x138 +1 x140 +1 x147 +1 x148 +1 x149 >= +1
 c75: +1 x0 +1 x6 +1 x10 +1 x13 +1 x19 +1 x28 +1 x31 +1 x32 +1 x33 +1 x34 +1 x37 +1 x39 +1 x48 +1 x55
  +1 x59 +1 x60 +1 x63 +1 x68 +1 x72 +1 x75 +1 x76 +1 x81 +1 x87 +1 x91 +1 x93 +1 x96 +1 x99 +1 x107 +1 x113
  +1 x115 +1 x122 +1 x130 +1 x135 +1 x137 >= +1
 c76: +1 x2 +1 x5 +1 x7 +1 x23 +1 x29 +1 x31 +1 x32 +1 x34 +1 x36 +1 x52 +1 x54 +1 x59 +1 x62 +1 x65 +1 x67
  +1 x69 +1 x72 +1 x76 +1 x82 +1 x90 +1 x93 +1 x96 +1 x104 +1 x109 +1 x112 +1 x115 +1 x124 +1 x130 >= +1
 c77: +1 x0 +1 x4 +1 x6 +1 x7 +1 x8 +1 x9 +1 x10 +1 x11 +1 x15 +1 x21 +1 x22 +1 x26 +1 x30 +1 x32 +1 x34
  +1 x39 +1 x40 +1 x42 +1 x46 +1 x50 +1 x54 +1 x60 +1 x62 +1 x66 +1 x68 +1 x71 +1 x76 +1 x82 +1 x90 +1 x93
  +1 x111 +1 x118 +1 x121 +1 x133 +1 x135 +1 x137 +1 x141 >= +1
 c78: +1 x0 +1 x7 +1 x13 +1 x16 +1 x21 +1 x22 +1 x26 +1 x28 +1 x35 +1 x40 +1 x47 +1 x72 +1 x73 +1 x76
  +1 x80 +1 x81 +1 x97 +1 x98 +1 x102 +1 x113 +1 x114 +1 x115 +1 x125 +1 x128 +1 x129 +1 x131 +1 x133
  +1 x138 +1 x145 +1 x146 >= +1
 c79: +1 x4 +1 x11 +1 x29 +1 x31 +1 x32 +1 x33 +1 x34 +1 x36 +1 x39 +1 x44 +1 x47 +1 x51 +1 x54 +1 x67
  +1 x72 +1 x77 +1 x80 +1 x86 +1 x92 +1 x100 +1 x101 +1 x103 +1 x105 +1 x106 +1 x107 +1 x109 +1 x119 +1 x122
  +1 x123 +1 x129 +1 x134 +1 x136 +1 x142 >= +1
 c80: +1 x1 +1 x10 +1 x11 +1 x12 +1 x32 +1 x43 +1 x46 +1 x70 +1 x76 +1 x91 +1 x98 +1 x102 +1 x104 +1 x120
  +1 x125 +1 x128 +1 x132 +1 x144 +1 x148 >= +1
 c81: +1 x0 +1 x8 +1 x15 +1 x16 +1 x19 +1 x23 +1 x26 +1 x39 +1 x40 +1 x47 +1 x48 +1 x53 +1 x66 +1 x75
  +1 x77 +1 x91 +1 x104 +1 x105 +1 x116 +1 x121 +1 x128 +1 x131 +1 x134 >= +1
 c82: +1 x2 +1 x12 +1 x15 +1 x16 +1 x25 +1 x27 +1 x28 +1 x29 +1 x30 +1 x33 +1 x35 +1 x39 +1 x40 +1 x41
  +1 x52 +1 x70 +1 x76 +1 x78 +1 x89 +1 x98 +1 x111 +1 x113 +1 x115 +1 x121 +1 x125 +1 x126 +1 x129 +1 x132
  +1 x147 >= +1
 c83: +1 x2 +1 x7 +1 x18 +1 x20 +1 x30 +1 x32 +1 x40 +1 x47 +1 x56 +1 x57 +1 x68 +1 x78 +1 x84 +1 x85
  +1 x86 +1 x94 +1 x103 +1 x104 +1 x111 +1 x124 +1 x130 +1 x131 +1 x138 +1 x139 +1 x142 +1 x147 +1 x149
  >= +1
 c84: +1 x1 +1 x8 +1 x11 +1 x12 +1 x14 +1 x25 +1 x30 +1 x31 +1 x33 +1 x41 +1 x48 +1 x51 +1 x52 +1 x54
  +1 x55 +1 x59 +1 x70 +1 x71 +1 x77 +1 x78 +1 x81 +1 x91 +1 x108 +1 x110 +1 x112 +1 x120 +1 x121 +1 x130
  +1 x131 +1 x132 +1 x137 +1 x144 +1 x148 >= +1
 c85: +1 x1 +1 x8 +1 x9 +1 x16 +1 x36 +1 x40 +1 x42 +1 x46 +1 x47 +1 x51 +1 x57 +1 x59 +1 x61 +1 x63 +1 x64
  +1 x65 +1 x66 +1 x68 +1 x69 +1 x76 +1 x78 +1 x81 +1 x86 +1 x91 +1 x101 +1 x115 +1 x117 +1 x130 +1 x138
  +1 x142 +1 x147 >= +1
 c86: +1 x2 +1 x7 +1 x10 +1 x12 +1 x13 +1 x17 +1 x28 +1 x33 +1 x36 +1 x37 +1 x41 +1 x43 +1 x48 +1 x51
  +1 x57 +1 x64 +1 x67 +1 x72 +1 x73 +1 x78 +1 x84 +1 x87 +1 x93 +1 x102 +1 x103 +1 x106 +1 x123 +1 x124
  +1 x126 +1 x127 +1 x128 +1 x131 +1 x132 +1 x136 +1 x139 +1 x144 +1 x148 >= +1
 c87: +1 x1 +1 x17 +1 x22 +1 x23 +1 x24 +1 x25 +1 x27 +1 x28 +1 x29 +1 x35 +1 x38 +1 x42 +1 x45 +1 x48
  +1 x49 +1 x56 +1 x59 +1 x60 +1 x64 +1 x67 +1 x75 +1 x77 +1 x79 +1 x80 +1 x86 +1 x87 +1 x88 +1 x89 +1 x95
  +1 x96 +1 x102 +1 x110 +1 x111 +1 x113 +1 x114 +1 x125 +1 x135 +1 x140 +1 x142 +1 x145 >= +1
 c88: +1 x1 +1 x6 +1 x12 +1 x21 +1 x30 +1 x35 +1 x47 +1 x59 +1 x61 +1 x62 +1 x65 +1 x70 +1 x75 +1 x77
  +1 x89 +1 x90 +1 x104 +1 x105 +1 x113 +1 x119 +1 x123 +1 x128 +1 x131 +1 x132 +1 x142 +1 x149 >= +1
 c89: +1 x1 +1 x6 +1 x9 +1 x12 +1 x14 +1 x15 +1 x24 +1 x26 +1 x31 +1 x33 +1 x37 +1 x38 +1 x40 +1 x42 +1 x46
  +1 x56 +1 x59 +1 x75 +1 x77 +1 x80 +1 x90 +1 x92 +1 x108 +1 x121 +1 x122 +1 x129 +1 x130 +1 x134 +1 x136
  +1 x138 +1 x139 +1 x140 +1 x141 >= +1
 c90: +1 x2 +1 x6 +1 x9 +1 x20 +1 x31 +1 x33 +1 x35 +1 x38 +1 x40 +1 x45 +1 x49 +1 x50 +1 x56 +1 x58 +1 x61
  +1 x62 +1 x71 +1 x73 +1 x77 +1 x78 +1 x84 +1 x85 +1 x87 +1 x88 +1 x96 +1 x100 +1 x103 +1 x105 +1 x113
  +1 x114 +1 x123 +1 x125 +1 x127 +1 x134 +1 x135 +1 x138 >= +1
 c91: +1 x4 +1 x7 +1 x8 +1 x12 +1 x22 +1 x27 +1 x30 +1 x40 +1 x50 +1 x52 +1 x55 +1 x56 +1 x57 +1 x65 +1 x68
  +1 x71 +1 x74 +1 x77 +1 x78 +1 x88 +1 x93 +1 x99 +1 x100 +1 x107 +1 x116 +1 x124 +1 x133 +1 x138 +1 x140
  +1 x141 +1 x148 +1 x149 >= +1
 c92: +1 x3 +1 x5 +1 x6 +1 x16 +1 x20 +1 x26 +1 x29 +1 x34 +1 x44 +1 x46 +1 x51 +1 x52 +1 x56 +1 x57 +1 x76
  +1 x78 +1 x79 +1 x87 +1 x92 +1 x101 +1 x102 +1 x115 +1 x122 +1 x132 +1 x133 +1 x135 +1 x137 +1 x139
  +1 x142 +1 x145 >= +1
 c93: +1 x3 +1 x5 +1 x7 +1 x9 +1 x13 +1 x14 +1 x18 +1 x22 +1 x23 +1 x28 +1 x32 +1 x41 +1 x44 +1 x58 +1 x68
  +1 x70 +1 x73 +1 x79 +1 x94 +1 x101 +1 x106 +1 x109 +1 x111 +1 x123 +1 x132 +1 x133 +1 x134 +1 x135
  +1 x147 +1 x149 >= +1
 c94: +1 x4 +1 x11 +1 x12 +1 x13 +1 x27 +1 x67 +1 x73 +1 x74 +1 x82 +1 x88 +1 x90 +1 x93 +1 x110 +1 x112
  +1 x114 +1 x119 +1 x121 +1 x124 +1 x132 +1 x133 +1 x138 +1 x147 +1 x149 >= +1
 c95: +1 x2 +1 x13 +1 x14 +1 x24 +1 x26 +1 x27 +1 x30 +1 x31 +1 x33 +1 x40 +1 x41 +1 x48 +1 x49 +1 x50
  +1 x63 +1 x72 +1 x73 +1 x82 +1 x94 +1 x109 +1 x122 +1 x123 +1 x125 +1 x127 +1 x144 >= +1
 c96: +1 x4 +1 x12 +1 x13 +1 x16 +1 x20 +1 x21 +1 x26 +1 x28 +1 x33 +1 x37 +1 x40 +1 x46 +1 x49 +1 x51
  +1 x55 +1 x61 +1 x69 +1 x75 +1 x82 +1 x86 +1 x87 +1 x90 +1 x96 +1 x100 +1 x103 +1 x104 +1 x110 +1 x112
  +1 x113 +1 x115 +1 x122 +1 x127 +1 x129 +1 x130 +1 x139 +1 x142 +1 x146 +1 x149 >= +1
 c97: +1 x3 +1 x5 +1 x9 +1 x12 +1 x13 +1 x17 +1 x26 +1 x37 +1 x42 +1 x44 +1 x46 +1 x53 +1 x55 +1 x58 +1 x71
  +1 x72 +1 x75 +1 x76 +1 x79 +1 x82 +1 x83 +1 x87 +1 x99 +1 x102 +1 x103 +1 x111 +1 x114 +1 x120 +1 x122
  +1 x125 +1 x135 +1 x138 +1 x140 +1 x144 >= +1
 c98: +1 x1 +1 x8 +1 x9 +1 x16 +1 x36 +1 x47 +1 x48 +1 x50 +1 x52 +1 x54 +1 x64 +1 x65 +1 x74 +1 x79 +1 x80
  +1 x85 +1 x90 +1 x91 +1 x92 +1 x97 +1 x105 +1 x108 +1 x109 +1 x112 +1 x121 +1 x125 +1 x127 +1 x129 +1 x144
  +1 x145 >= +1
 c99: +1 x3 +1 x5 +1 x8 +1 x9 +1 x13 +1 x18 +1 x20 +1 x28 +1 x29 +1 x33 +1 x38 +1 x40 +1 x54 +1 x57 +1 x66
  +1 x73 +1 x81 +1 x85 +1 x87 +1 x96 +1 x98 +1 x115 +1 x117 +1 x121 +1 x122 +1 x123 +1 x126 +1 x132 +1 x135
  +1 x138 +1 x140 +1 x144 +1 x145 >= +1
Bounds
 0 <= x0 <= 1
 0 <= x1 <= 1
 0 <= x2 <= 1
 0 <= x3 <= 1
 0 <= x4 <= 1
 0 <= x5 <= 1
 0 <= x6 <= 1
 0 <= x7 <= 1
 0 <= x8 <= 1
 0 <= x9 <= 1
 0 <= x10 <= 1
 0 <= x11 <= 1
 0 <= x12 <= 1
 0 <= x13 <= 1
 0 <= x14 <= 1
 0 <= x15 <= 1
 0 <= x16 <= 1
 0 <= x17 <= 1
 0 <= x18 <= 1
 0 <= x19 <= 1
 0 <= x20 <= 1
 0 <= x21 <= 1
 0 <= x22 <= 1
 0 <= x23 <= 1
 0 <= x24 <= 1
 0 <= x25 <= 1
 0 <= x26 <= 1
 0 <= x27 <= 1
 0 <= x28 <= 1
 0 <= x29 <= 1
 0 <= x30 <= 1
 0 <= x31 <= 1
 0 <= x32 <= 1
 0 <= x33 <= 1
 0 <= x34 <= 1
 0 <= x35 <= 1
 0 <= x36 <= 1
 0 <= x37 <= 1
 0 <= x38 <= 1
 0 <= x39 <= 1
 0 <= x40 <= 1
 0 <= x41 <= 1
 0 <= x42 <= 1
 0 <= x43 <= 1
 0 <= x44 <= 1
 0 <= x45 <= 1
 0 <= x46 <= 1
 0 <= x47 <= 1
 0 <= x48 <= 1
 0 <= x49 <= 1
 0 <= x50 <= 1
 0 <= x51 <= 1
 0 <= x52 <= 1
 0 <= x53 <= 1
 0 <= x54 <= 1
 0 <= x55 <= 1
 0 <= x56 <= 1
 0 <= x57 <= 1
 0 <= x58 <= 1
 0 <= x59 <= 1
 0 <= x60 <= 1
 0 <= x61 <= 1
 0 <= x62 <= 1
 0 <= x63 <= 1
 0 <= x64 <= 1
 0 <= x65 <= 1
 0 <= x66 <= 1
 0 <= x67 <= 1
 0 <= x68 <= 1
 0 <= x69 <= 1
 0 <= x70 <= 1
 0 <= x71 <= 1
 0 <= x72 <= 1
 0 <= x73 <= 1
 0 <= x74 <= 1
 0 <= x75 <= 1
 0 <= x76 <= 1
 0 <= x77 <= 1
 0 <= x78 <= 1
 0 <= x79 <= 1
 0 <= x80 <= 1
 0 <= x81 <= 1
 0 <= x82 <= 1
 0 <= x83 <= 1
 0 <= x84 <= 1
 0 <= x85 <= 1
 0 <= x86 <= 1
 0 <= x87 <= 1
 0 <= x88 <= 1
 0 <= x89 <= 1
 0 <= x90 <= 1
 0 <= x91 <= 1
 0 <= x92 <= 1
 0 <= x93 <= 1
 0 <= x94 <= 1
 0 <= x95 <= 1
 0 <= x96 <= 1
 0 <= x97 <= 1
 0 <= x98 <= 1
 0 <= x99 <= 1
 0 <= x100 <= 1
 0 <= x101 <= 1
 0 <= x102 <= 1
 0 <= x103 <= 1
 0 <= x104 <= 1
 0 <= x105 <= 1
 0 <= x106 <= 1
 0 <= x107 <= 1
 0 <= x108 <= 1
 0 <= x109 <= 1
 0 <= x110 <= 1
 0 <= x111 <= 1
 0 <= x112 <= 1
 0 <= x113 <= 1
 0 <= x114 <= 1
 0 <= x115 <= 1
 0 <= x116 <= 1
 0 <= x117 <= 1
 0 <= x118 <= 1
 0 <= x119 <= 1
 0 <= x120 <= 1
 0 <= x121 <= 1
 0 <= x122 <= 1
 0 <= x123 <= 1
 0 <= x124 <= 1
 0 <= x125 <= 1
 0 <= x126 <= 1
 0 <= x127 <= 1
 0 <= x128 <= 1
 0 <= x129 <= 1
 0 <= x130 <= 1
 0 <= x131 <= 1
 0 <= x132 <= 1
 0 <= x133 <= 1
 0 <= x134 <= 1
 0 <= x135 <= 1
 0 <= x136 <= 1
 0 <= x137 <= 1
 0 <= x138 <= 1
 0 <= x139 <= 1
 0 <= x140 <= 1
 0 <= x141 <= 1
 0 <= x142 <= 1
 0 <= x143 <= 1
 0 <= x144 <= 1
 0 <= x145 <= 1
 0 <= x146 <= 1
 0 <= x147 <= 1
 0 <= x148 <= 1
 0 <= x149 <= 1
Binaries
 x0 x1 x2 x3 x4 x5 x6 x7 x8 x9 x10 x11 x12 x13 x14 x15 x16 x17 x18 x19 x20 x21 x22 x23 x24 x25 x26 x27
 x28 x29 x30 x31 x32 x33 x34 x35 x36 x37 x38 x39 x40 x41 x42 x43 x44 x45 x46 x47 x48 x49 x50 x51 x52 x53
 x54 x55 x56 x57 x58 x59 x60 x61 x62 x63 x64 x65 x66 x67 x68 x69 x70 x71 x72 x73 x74 x75 x76 x77 x78 x79
 x80 x81 x82 x83 x84 x85 x86 x87 x88 x89 x90 x91 x92 x93 x94 x95 x96 x97 x98 x99 x100 x101 x102 x103 x104
 x105 x106 x107 x108 x109 x110 x111 x112 x113 x114 x115 x116 x117 x118 x119 x120 x121 x122 x123 x124 x125
 x126 x127 x128 x129 x130 x131 x132 x133 x134 x135 x136 x137 x138 x139 x140 x141 x142 x143 x144 x145 x146
 x147 x148 x149
End
